% Data for perfect square placement problem:
% http://www.hakank.org/minizinc/perfect_square_placement.mzn
% Data is originally from CSPLib:
% http://www.cs.st-andrews.ac.uk/~ianm/CSPLib/prob/prob009/results

% problem 206 
n = 655;
size = 25;
a = [10,14,15,21,25,26,31,40,51,53,54,57,65,83,84,86,151,152,173,193,194,215,216,246,288];

